40
    73    68    69    37    27    80     3     2    78    24    54    97    86    71    83     5    39    41    29    12    50    11     9     7    65     9    18    83    53    17    29    37    16    70    93    66    81    56    40    73
     2     3     4     6     5     4     5     1     6     4     5     2     9     3     8     3     5     9     3     2     5     6     8     5     8     2     9     2    10     3     3     1     6     9     2     3     2     8     8     9
   426  1677   602   778  1508   480  1314   481  1390  1584  1019   718  1699   586  1048   758  1673  1716  1667   576   992  1056   823  1550   387  1735  1067   466  1497  1620   859   626  1525  1071  1501  1388   537  1036  1416  1843
